c 
c U(n,d) graph
c graph gen seed     : 2311
c number of vertices : 60
c max number of edges: 1770
c Euclidean distance : 0.200000
c data structure     : sparse
c
c           Graph Stats
c number of vertices  : 60
c nonisolated vertices: 60
c number of edges     : 163
c edge density        : 0.092090
c max degree          : 11
c avg degree          : 5.43
c min degree          : 1
p col 60 163
e 1 49
e 1 29
e 1 28
e 1 3
e 1 2
e 2 49
e 2 41
e 2 29
e 2 28
e 2 25
e 2 7
e 2 3
e 3 53
e 3 49
e 3 29
e 3 28
e 4 58
e 4 32
e 4 31
e 4 8
e 5 58
e 5 48
e 5 44
e 5 20
e 5 12
e 6 51
e 6 45
e 6 18
e 7 52
e 7 50
e 7 39
e 7 25
e 7 19
e 7 15
e 7 11
e 8 31
e 9 48
e 9 30
e 9 27
e 9 24
e 10 52
e 10 50
e 10 46
e 10 41
e 10 25
e 10 23
e 10 11
e 11 52
e 11 50
e 11 46
e 11 39
e 11 37
e 11 35
e 11 25
e 11 19
e 11 15
e 12 54
e 12 48
e 12 34
e 12 30
e 12 27
e 12 20
e 12 14
e 13 56
e 13 46
e 13 44
e 13 36
e 13 23
e 13 21
e 14 54
e 14 48
e 14 34
e 14 20
e 15 39
e 15 25
e 15 19
e 15 16
e 16 33
e 17 60
e 17 45
e 17 42
e 17 40
e 17 26
e 18 60
e 18 57
e 18 51
e 18 42
e 19 39
e 19 25
e 20 48
e 20 34
e 20 30
e 21 56
e 21 36
e 22 60
e 22 57
e 22 54
e 22 42
e 22 38
e 23 56
e 23 46
e 23 44
e 23 36
e 24 48
e 24 30
e 24 27
e 25 52
e 25 50
e 25 39
e 26 40
e 27 48
e 27 30
e 28 53
e 28 49
e 28 29
e 29 59
e 29 53
e 29 51
e 29 49
e 29 41
e 30 48
e 31 58
e 31 32
e 32 58
e 32 44
e 33 47
e 34 57
e 34 54
e 35 43
e 35 39
e 35 37
e 36 56
e 36 55
e 36 44
e 37 43
e 37 39
e 38 60
e 38 57
e 38 42
e 38 40
e 39 52
e 39 43
e 40 60
e 40 45
e 40 42
e 41 59
e 41 52
e 41 50
e 42 60
e 42 57
e 44 58
e 44 55
e 45 60
e 46 52
e 46 50
e 49 53
e 49 51
e 50 52
e 51 59
e 51 53
e 54 57
e 55 58
e 57 60
